NAME : euro-night-0000040.instance.-47740468.tour
COMMENT : Length = -47740468
COMMENT : Found by LKH [Keld Helsgaun] Tue May 21 17:28:43 2019
TYPE : TOUR
DIMENSION : 40
TOUR_SECTION
1
4
6
3
7
9
5
16
23
22
11
15
20
24
10
13
21
25
12
28
14
17
27
32
37
29
33
34
38
31
26
35
19
30
8
40
39
36
18
2
-1
EOF
